Minimize
    22 x0 + 30 x1 + 34 x2 + 41 x3 + 45 x4 + 58 x5
Subject To
    c0: -79 x0 - 56 x1 - 40 x2 + 122 x3 + 66 x4 - 76 x5 >= 72
    c1: 35 x0 + 66 x1 + 66 x2 - 5 x3 - 75 x4 - 103 x5 >= -117
    c2: 43 x0 + 88 x1 - 59 x2 + 71 x3 + 91 x4 + 99 x5 >= 202
    c3: 82 x0 + 22 x1 + 49 x2 - 120 x3 - 39 x4 + 77 x5 >= -33
    c4: -89 x0 - 10 x1 + 109 x2 + 10 x3 + 2 x4 - 110 x5 >= 11
    c5: 16 x0 + 26 x1 + 66 x2 + 50 x3 + 8 x4 + 3 x5 >= 127
    c6: 100 x0 - 119 x1 - 93 x2 + 121 x3 + 49 x4 - 30 x5 >= 47
    c7: 68 x0 + 27 x1 - 60 x2 - 48 x3 - 123 x4 + 54 x5 >= -177
    c8: 31 x0 + 3 x1 + 118 x2 + 22 x3 - 15 x4 - 86 x5 >= 39
    c9: 40 x0 + 18 x1 + 48 x2 - 81 x3 + 22 x4 + 47 x5 >= 36
    c10: 75 x0 - 66 x1 - 14 x2 + 53 x3 + 0 x4 - 99 x5 >= -60
    c11: -28 x0 - 92 x1 + 37 x2 - 28 x3 + 56 x4 + 108 x5 >= 173
    c12: 127 x0 - 42 x1 + 87 x2 + 95 x3 - 123 x4 - 122 x5 >= -63
    c13: 50 x0 - 125 x1 + 99 x2 - 112 x3 + 54 x4 + 18 x5 >= 59
    c14: -90 x0 + 24 x1 - 71 x2 + 33 x3 - 41 x4 - 35 x5 >= -114
    c15: -69 x0 - 103 x1 - 63 x2 - 114 x3 + 33 x4 - 27 x5 >= -171
Binary
    x0 x1 x2 x3 x4 x5
End
